
  22   10
  10   10   10   10   10   10   10   10   10   10

   0   0   0   0   0   0   0   0   0   0   0   8 2 4 5 6 7 9 12 13 
   9  10  10  10  10  10  10  10  10  10  10   4 20 18 16 3 
   1  10  10  10  10  10  10  10  10  10  10   4 21 17 15 8 
   6  10  10  10  10  10  10  10  10  10  10   4 20 16 15 14 
   5  10  10  10  10  10  10  10  10  10  10   4 18 17 15 14 
   4  10  10  10  10  10  10  10  10  10  10   4 18 17 15 14 
   8  10  10  10  10  10  10  10  10  10  10   3 16 15 11 
   9  10  10  10  10  10  10  10  10  10  10   2 19 10 
   6  10  10  10  10  10  10  10  10  10  10   2 16 14 
   4  10  10  10  10  10  10  10  10  10  10   1 11 
   6  10  10  10  10  10  10  10  10  10  10   1 14 
   4  10  10  10  10  10  10  10  10  10  10   1 15 
   5  10  10  10  10  10  10  10  10  10  10   1 15 
   5  10  10  10  10  10  10  10  10  10  10   1 22
   8  10  10  10  10  10  10  10  10  10  10   1 22
   1  10  10  10  10  10  10  10  10  10  10   1 22
   1  10  10  10  10  10  10  10  10  10  10   1 22
   6  10  10  10  10  10  10  10  10  10  10   1 22
   2  10  10  10  10  10  10  10  10  10  10   1 22
   7  10  10  10  10  10  10  10  10  10  10   1 22
   7  10  10  10  10  10  10  10  10  10  10   1 22
   0   0   0   0   0   0   0   0   0   0   0   0 
